<number of tasks>
250

<cycle time>
1000

<order strength>
0.595


<task times>
1 543
2 230
3 52
4 598
5 191
6 107
7 530
8 128
9 222
10 88
11 135
12 568
13 140
14 232
15 78
16 471
17 82
18 536
19 53
20 189
21 64
22 524
23 87
24 108
25 173
26 111
27 430
28 244
29 116
30 486
31 50
32 271
33 208
34 271
35 515
36 379
37 366
38 127
39 418
40 489
41 459
42 322
43 148
44 267
45 180
46 170
47 194
48 251
49 160
50 110
51 294
52 70
53 61
54 556
55 298
56 142
57 210
58 196
59 567
60 305
61 285
62 446
63 46
64 305
65 126
66 457
67 456
68 298
69 325
70 272
71 71
72 224
73 186
74 64
75 594
76 446
77 316
78 508
79 273
80 308
81 194
82 153
83 87
84 516
85 144
86 591
87 482
88 192
89 73
90 246
91 101
92 522
93 373
94 470
95 506
96 509
97 59
98 398
99 404
100 428
101 89
102 125
103 153
104 276
105 506
106 310
107 321
108 178
109 242
110 75
111 144
112 88
113 69
114 414
115 33
116 572
117 51
118 205
119 264
120 142
121 280
122 267
123 75
124 453
125 452
126 147
127 416
128 123
129 53
130 290
131 175
132 503
133 160
134 185
135 71
136 293
137 21
138 444
139 97
140 116
141 166
142 470
143 195
144 93
145 231
146 65
147 349
148 342
149 127
150 120
151 162
152 292
153 310
154 279
155 459
156 111
157 299
158 264
159 137
160 247
161 28
162 94
163 69
164 36
165 522
166 41
167 103
168 157
169 436
170 94
171 23
172 116
173 415
174 34
175 32
176 77
177 403
178 233
179 75
180 468
181 67
182 557
183 322
184 366
185 281
186 55
187 73
188 205
189 219
190 153
191 470
192 176
193 77
194 396
195 227
196 454
197 81
198 42
199 285
200 582
201 498
202 58
203 498
204 125
205 198
206 65
207 459
208 70
209 204
210 133
211 129
212 283
213 61
214 210
215 212
216 131
217 181
218 104
219 52
220 64
221 346
222 390
223 89
224 231
225 112
226 101
227 262
228 89
229 139
230 87
231 165
232 499
233 121
234 459
235 473
236 133
237 487
238 47
239 103
240 560
241 172
242 460
243 102
244 160
245 198
246 47
247 545
248 85
249 41
250 179

<precedence relations>
1,69
2,148
3,148
4,178
5,6
5,7
5,8
5,9
5,10
6,122
7,69
8,64
9,178
10,11
10,12
10,13
10,14
10,15
10,16
10,17
10,18
10,19
10,20
10,21
11,150
12,69
13,69
14,64
15,64
16,148
17,209
18,209
19,175
20,22
20,23
20,24
20,25
20,26
20,28
21,23
21,27
21,45
22,200
23,64
24,148
25,214
26,214
27,30
27,31
27,35
27,36
27,37
28,29
28,32
28,33
28,34
28,38
29,200
30,103
31,69
32,69
33,69
34,64
35,148
36,209
37,175
38,39
38,40
38,41
38,42
38,43
38,44
38,45
38,46
39,103
40,69
41,69
42,214
43,47
43,122
43,138
44,51
44,53
45,49
45,50
45,51
45,54
46,47
46,48
46,52
46,76
46,108
46,119
47,129
48,129
49,103
50,64
51,55
51,60
52,94
52,128
52,139
53,55
53,56
53,57
53,58
53,59
54,56
54,57
55,150
56,122
57,69
58,69
59,64
60,61
60,62
60,63
60,64
60,65
60,66
60,67
60,68
61,150
62,69
63,69
64,70
64,71
64,72
64,73
64,76
64,77
64,78
64,109
65,178
66,79
66,80
66,95
67,69
67,74
67,75
67,76
67,79
67,80
68,75
68,96
69,81
69,82
69,83
69,84
69,85
69,86
69,87
69,88
70,148
71,175
72,175
73,89
73,96
73,97
73,111
74,214
75,88
75,90
75,105
76,88
76,100
76,106
77,88
77,90
77,92
77,93
77,119
78,88
78,100
78,119
79,108
79,142
80,177
80,184
80,213
80,246
81,89
81,90
81,92
81,94
81,98
81,99
81,110
82,96
82,101
83,90
84,97
84,104
84,105
84,119
85,93
85,195
85,200
85,221
86,245
87,91
87,95
88,89
88,91
88,97
88,102
89,150
90,129
91,122
92,103
93,209
94,175
95,101
96,99
96,100
96,110
96,112
97,99
98,119
99,103
100,103
101,102
101,103
101,104
101,105
101,106
101,107
101,108
101,109
101,110
102,122
103,113
103,114
103,115
103,116
103,117
103,118
104,209
105,230
106,178
108,111
108,140
108,148
109,112
110,119
110,140
111,129
112,122
113,214
114,120
114,122
114,128
114,165
115,120
115,123
116,124
116,176
117,120
117,126
117,165
118,121
118,125
118,137
119,120
119,125
120,150
121,129
122,127
122,130
122,131
122,132
122,133
122,134
122,135
122,137
123,178
124,127
124,128
124,139
125,127
125,136
125,138
126,127
126,128
126,135
126,136
126,138
127,150
128,150
129,143
129,144
129,145
129,146
129,147
129,149
131,140
131,142
131,148
132,139
132,141
133,139
133,148
134,149
135,148
136,148
138,139
139,150
140,150
141,150
142,200
143,178
144,150
145,195
146,165
146,177
147,150
147,164
147,175
148,151
148,152
148,153
148,154
148,155
148,156
148,157
148,158
148,159
148,160
148,161
148,162
148,163
148,184
149,178
149,184
150,166
150,167
150,168
150,169
150,170
150,171
150,172
150,173
151,175
152,174
152,175
152,177
153,240
154,200
154,202
154,209
156,185
156,186
157,174
157,193
158,214
158,243
159,241
160,198
161,176
161,196
161,203
161,233
162,222
162,230
163,203
164,174
164,177
165,174
165,175
166,210
166,222
167,243
168,185
168,186
169,177
169,178
169,192
170,196
170,197
170,198
170,199
171,177
171,178
171,184
172,184
172,212
173,192
174,178
175,179
175,180
175,181
175,182
175,183
175,185
176,177
177,209
178,187
178,188
178,189
178,190
178,191
179,221
180,186
180,197
180,211
180,212
181,211
181,245
182,220
182,232
183,186
183,192
184,195
185,192
185,193
185,199
186,200
187,195
187,199
190,196
190,198
190,201
191,194
191,196
191,197
192,197
192,198
193,194
193,195
193,196
193,198
193,221
194,200
195,214
196,209
197,230
198,200
198,231
199,201
199,202
199,203
200,204
200,205
200,206
200,207
200,208
200,210
200,213
200,220
201,209
202,230
203,211
203,212
204,214
205,214
206,214
207,214
207,222
208,241
209,215
209,216
209,217
209,218
209,219
209,245
210,230
211,221
212,220
213,244
214,223
214,224
214,225
214,226
214,227
214,228
214,229
215,241
216,247
217,231
217,241
219,240
220,230
221,240
222,232
222,233
223,240
223,247
224,240
228,245
230,234
230,235
230,236
230,237
230,238
230,239
231,244
233,241
233,243
234,241
234,242
234,245
235,242
235,245
236,250
238,241
239,243
239,244
242,246
243,247
245,247
246,247
246,248
246,249
247,250
248,250

<end>
